NAME: random_70_7
TYPE: TSP
COMMENT: random_70_7
DIMENSION: 70
EDGE_WEIGHT_TYPE: EUC_2D
NODE_COORD_SECTION
1 167 417
2 152 498
3 266 357
4 383 447
5 133 160
6 238 10
7 343 384
8 412 235
9 137 176
10 414 383
11 285 226
12 111 197
13 39 11
14 47 98
15 226 305
16 116 143
17 118 8
18 384 39
19 145 141
20 66 367
21 397 57
22 335 49
23 491 131
24 242 10
25 400 87
26 105 172
27 417 472
28 312 486
29 122 406
30 273 492
31 208 214
32 152 201
33 144 225
34 289 97
35 373 178
36 179 378
37 103 118
38 6 427
39 147 48
40 229 16
41 357 168
42 196 130
43 51 181
44 269 13
45 265 337
46 79 81
47 138 106
48 197 397
49 285 59
50 290 450
51 432 181
52 304 109
53 222 303
54 17 278
55 460 434
56 455 137
57 104 206
58 404 193
59 27 483
60 4 129
61 174 367
62 302 481
63 307 36
64 193 203
65 435 350
66 104 176
67 298 472
68 73 187
69 197 164
70 372 251
